; benchmark generated from python API
(set-info :status unknown)
(declare-fun x_epoch () (_ BitVec 32))
(declare-fun x_plus_epoch () (_ BitVec 32))
(declare-fun x_plus_month () (_ BitVec 32))
(declare-fun x_plus_year () (_ BitVec 32))
(declare-fun x_plus_day () (_ BitVec 32))
(declare-fun x_plus_1_epoch () (_ BitVec 32))
(assert
 (bvsle (_ bv4294930771 32) x_epoch))
(assert
 (bvsge (_ bv36523 32) x_epoch))
(assert
 (bvsge x_epoch (_ bv8341 32)))
(assert
 (bvsle x_epoch (_ bv8705 32)))
(assert
 (bvsle (_ bv4294930771 32) x_plus_epoch))
(assert
 (bvsge (_ bv36523 32) x_plus_epoch))
(assert
 (let (($x3631 (= x_plus_month (_ bv11 32))))
 (let (($x3774 (= x_plus_month (_ bv9 32))))
 (let (($x3540 (= x_plus_month (_ bv6 32))))
 (let (($x1963 (= x_plus_month (_ bv4 32))))
 (let ((?x3124 (ite (or $x1963 $x3540 $x3774 $x3631) (_ bv30 32) (_ bv31 32))))
 (let (($x3095 (and (= (bvsmod x_plus_year (_ bv4 32)) (_ bv0 32)) (and (distinct (bvsmod x_plus_year (_ bv100 32)) (_ bv0 32)) true))))
 (let (($x2846 (or $x3095 (= (bvsmod x_plus_year (_ bv400 32)) (_ bv0 32)))))
 (let (($x3000 (= x_plus_month (_ bv2 32))))
 (let (($x1455 (bvsle (_ bv1 32) x_plus_day)))
 (let (($x3017 (bvsle (_ bv1 32) x_plus_month)))
 (let (($x2684 (bvsle (_ bv1900 32) x_plus_year)))
 (and $x2684 (bvsge (_ bv2100 32) x_plus_year) $x3017 (bvsge (_ bv12 32) x_plus_month) $x1455 (bvsle x_plus_day (ite $x3000 (ite $x2846 (_ bv29 32) (_ bv28 32)) ?x3124)))))))))))))))
(assert
 (let (($x3095 (and (= (bvsmod x_plus_year (_ bv4 32)) (_ bv0 32)) (and (distinct (bvsmod x_plus_year (_ bv100 32)) (_ bv0 32)) true))))
 (let (($x2846 (or $x3095 (= (bvsmod x_plus_year (_ bv400 32)) (_ bv0 32)))))
 (let ((?x3362 (ite (= (_ bv2 32) x_plus_month) (ite $x2846 (_ bv31 32) (_ bv31 32)) (ite (= (_ bv1 32) x_plus_month) (ite $x2846 (_ bv0 32) (_ bv0 32)) (_ bv0 32)))))
 (let ((?x1897 (ite (= (_ bv4 32) x_plus_month) (ite $x2846 (_ bv91 32) (_ bv90 32)) (ite (= (_ bv3 32) x_plus_month) (ite $x2846 (_ bv60 32) (_ bv59 32)) ?x3362))))
 (let ((?x2115 (ite (= (_ bv6 32) x_plus_month) (ite $x2846 (_ bv152 32) (_ bv151 32)) (ite (= (_ bv5 32) x_plus_month) (ite $x2846 (_ bv121 32) (_ bv120 32)) ?x1897))))
 (let ((?x1801 (ite (= (_ bv8 32) x_plus_month) (ite $x2846 (_ bv213 32) (_ bv212 32)) (ite (= (_ bv7 32) x_plus_month) (ite $x2846 (_ bv182 32) (_ bv181 32)) ?x2115))))
 (let ((?x2760 (ite (= (_ bv10 32) x_plus_month) (ite $x2846 (_ bv274 32) (_ bv273 32)) (ite (= (_ bv9 32) x_plus_month) (ite $x2846 (_ bv244 32) (_ bv243 32)) ?x1801))))
 (let ((?x1446 (ite (= (_ bv12 32) x_plus_month) (ite $x2846 (_ bv335 32) (_ bv334 32)) (ite (= (_ bv11 32) x_plus_month) (ite $x2846 (_ bv305 32) (_ bv304 32)) ?x2760))))
 (let ((?x2229 (bvadd (bvmul (_ bv365 32) (bvsub x_plus_year (_ bv1 32))) (bvsdiv (bvsub x_plus_year (_ bv1 32)) (_ bv4 32)))))
 (let ((?x3813 (bvadd (bvsub ?x2229 (bvsdiv (bvsub x_plus_year (_ bv1 32)) (_ bv100 32))) (bvsdiv (bvsub x_plus_year (_ bv1 32)) (_ bv400 32)))))
 (= x_plus_epoch (bvsub (bvadd (bvadd ?x3813 ?x1446) (bvsub x_plus_day (_ bv1 32))) (_ bv730179 32))))))))))))))
(assert
 (let ((?x38534 (bvadd x_epoch (_ bv730179 32))))
 (let ((?x2630 (bvsmod ?x38534 (_ bv146097 32))))
 (let ((?x4324 (bvsdiv ?x2630 (_ bv36524 32))))
 (let ((?x4661 (ite (bvsle (_ bv4 32) ?x4324) (_ bv3 32) ?x4324)))
 (let ((?x4678 (bvsub ?x2630 (bvmul ?x4661 (_ bv36524 32)))))
 (let ((?x589 (bvsmod ?x4678 (_ bv1461 32))))
 (let ((?x1294 (bvsdiv ?x589 (_ bv365 32))))
 (let ((?x40515 (ite (bvsle (_ bv4 32) ?x1294) (_ bv3 32) ?x1294)))
 (let ((?x3519 (bvadd (bvadd (bvmul (bvsdiv ?x38534 (_ bv146097 32)) (_ bv400 32)) (bvmul ?x4661 (_ bv100 32))) (bvmul (bvsdiv ?x4678 (_ bv1461 32)) (_ bv4 32)))))
 (let ((?x51043 (bvadd (bvadd ?x3519 ?x40515) (_ bv1 32))))
 (let (($x3698 (or (and (= (bvsmod ?x51043 (_ bv4 32)) (_ bv0 32)) (and (distinct (bvsmod ?x51043 (_ bv100 32)) (_ bv0 32)) true)) (= (bvsmod ?x51043 (_ bv400 32)) (_ bv0 32)))))
 (let ((?x49372 (bvsub ?x589 (bvmul ?x40515 (_ bv365 32)))))
 (let ((?x42689 (ite $x3698 (_ bv31 32) (_ bv31 32))))
 (let (($x3604 (bvsge ?x49372 ?x42689)))
 (let ((?x2598 (ite $x3604 (bvadd (bvsub ?x49372 ?x42689) (_ bv1 32)) (bvadd (bvsub ?x49372 (ite $x3698 (_ bv0 32) (_ bv0 32))) (_ bv1 32)))))
 (let ((?x1479 (ite $x3698 (_ bv60 32) (_ bv59 32))))
 (let (($x2217 (bvsge ?x49372 ?x1479)))
 (let ((?x2842 (ite $x3698 (_ bv91 32) (_ bv90 32))))
 (let (($x2102 (bvsge ?x49372 ?x2842)))
 (let ((?x2252 (ite $x2102 (bvadd (bvsub ?x49372 ?x2842) (_ bv1 32)) (ite $x2217 (bvadd (bvsub ?x49372 ?x1479) (_ bv1 32)) ?x2598))))
 (let ((?x5872 (ite $x3698 (_ bv121 32) (_ bv120 32))))
 (let (($x3525 (bvsge ?x49372 ?x5872)))
 (let ((?x4776 (ite $x3698 (_ bv152 32) (_ bv151 32))))
 (let (($x1713 (bvsge ?x49372 ?x4776)))
 (let ((?x1689 (ite $x1713 (bvadd (bvsub ?x49372 ?x4776) (_ bv1 32)) (ite $x3525 (bvadd (bvsub ?x49372 ?x5872) (_ bv1 32)) ?x2252))))
 (let ((?x4238 (ite $x3698 (_ bv182 32) (_ bv181 32))))
 (let (($x763 (bvsge ?x49372 ?x4238)))
 (let ((?x38093 (ite $x3698 (_ bv213 32) (_ bv212 32))))
 (let (($x412 (bvsge ?x49372 ?x38093)))
 (let ((?x1226 (ite $x412 (bvadd (bvsub ?x49372 ?x38093) (_ bv1 32)) (ite $x763 (bvadd (bvsub ?x49372 ?x4238) (_ bv1 32)) ?x1689))))
 (let ((?x38040 (ite $x3698 (_ bv244 32) (_ bv243 32))))
 (let (($x578 (bvsge ?x49372 ?x38040)))
 (let ((?x1016 (ite $x3698 (_ bv274 32) (_ bv273 32))))
 (let (($x2125 (bvsge ?x49372 ?x1016)))
 (let ((?x1751 (ite $x2125 (bvadd (bvsub ?x49372 ?x1016) (_ bv1 32)) (ite $x578 (bvadd (bvsub ?x49372 ?x38040) (_ bv1 32)) ?x1226))))
 (let ((?x1414 (ite $x3698 (_ bv305 32) (_ bv304 32))))
 (let (($x1691 (bvsge ?x49372 ?x1414)))
 (let ((?x3275 (ite $x3698 (_ bv335 32) (_ bv334 32))))
 (let (($x2413 (bvsge ?x49372 ?x3275)))
 (let ((?x2270 (ite $x2413 (bvadd (bvsub ?x49372 ?x3275) (_ bv1 32)) (ite $x1691 (bvadd (bvsub ?x49372 ?x1414) (_ bv1 32)) ?x1751))))
 (let ((?x3159 (bvmul (_ bv0 32) (_ bv12 32))))
 (let ((?x34837 (bvadd ?x3159 (_ bv2 32))))
 (let ((?x634 (ite $x1713 (_ bv6 32) (ite $x3525 (_ bv5 32) (ite $x2102 (_ bv4 32) (ite $x2217 (_ bv3 32) (ite $x3604 (_ bv2 32) (_ bv1 32))))))))
 (let ((?x1635 (ite $x1691 (_ bv11 32) (ite $x2125 (_ bv10 32) (ite $x578 (_ bv9 32) (ite $x412 (_ bv8 32) (ite $x763 (_ bv7 32) ?x634)))))))
 (let ((?x3109 (ite $x2413 (_ bv12 32) ?x1635)))
 (let ((?x34702 (bvadd ?x3109 ?x34837)))
 (let ((?x28400 (bvsub (ite (bvuge ?x34702 (_ bv2147483648 32)) (bvsub ?x34702 (_ bv0 32)) ?x34702) (_ bv1 32))))
 (let ((?x819 (bvsmod ?x28400 (_ bv12 32))))
 (let ((?x82942 (bvadd ?x819 (_ bv1 32))))
 (let ((?x84624 (ite (or (= ?x82942 (_ bv4 32)) (= ?x82942 (_ bv6 32)) (= ?x82942 (_ bv9 32)) (= ?x82942 (_ bv11 32))) (_ bv30 32) (_ bv31 32))))
 (let ((?x22290 (bvsdiv ?x28400 (_ bv12 32))))
 (let ((?x26801 (ite (and (bvuge ?x28400 (_ bv2147483648 32)) (and (distinct (_ bv0 32) ?x819) true)) (bvsub ?x22290 (_ bv1 32)) ?x22290)))
 (let ((?x46716 (bvadd (_ bv0 32) ?x26801)))
 (let ((?x85940 (bvadd ?x51043 ?x46716)))
 (let (($x37706 (or (and (= (bvsmod ?x85940 (_ bv4 32)) (_ bv0 32)) (and (distinct (bvsmod ?x85940 (_ bv100 32)) (_ bv0 32)) true)) (= (bvsmod ?x85940 (_ bv400 32)) (_ bv0 32)))))
 (let ((?x80886 (ite (= ?x82942 (_ bv2 32)) (ite $x37706 (_ bv29 32) (_ bv28 32)) ?x84624)))
 (let (($x2430 (bvsgt (_ bv1 32) ?x2270)))
 (let ((?x20941 (ite $x2430 (_ bv1 32) (ite (bvsgt ?x2270 ?x80886) ?x80886 ?x2270))))
 (let ((?x22754 (ite (bvsgt (_ bv1 32) ?x20941) (_ bv1 32) (ite (bvsgt ?x20941 ?x80886) ?x80886 ?x20941))))
 (let ((?x80906 (ite (= (_ bv2 32) ?x82942) (ite $x37706 (_ bv31 32) (_ bv31 32)) (ite (= (_ bv1 32) ?x82942) (ite $x37706 (_ bv0 32) (_ bv0 32)) (_ bv0 32)))))
 (let ((?x23676 (ite (= (_ bv4 32) ?x82942) (ite $x37706 (_ bv91 32) (_ bv90 32)) (ite (= (_ bv3 32) ?x82942) (ite $x37706 (_ bv60 32) (_ bv59 32)) ?x80906))))
 (let ((?x31306 (ite (= (_ bv6 32) ?x82942) (ite $x37706 (_ bv152 32) (_ bv151 32)) (ite (= (_ bv5 32) ?x82942) (ite $x37706 (_ bv121 32) (_ bv120 32)) ?x23676))))
 (let ((?x952 (ite (= (_ bv8 32) ?x82942) (ite $x37706 (_ bv213 32) (_ bv212 32)) (ite (= (_ bv7 32) ?x82942) (ite $x37706 (_ bv182 32) (_ bv181 32)) ?x31306))))
 (let ((?x88262 (ite (= (_ bv10 32) ?x82942) (ite $x37706 (_ bv274 32) (_ bv273 32)) (ite (= (_ bv9 32) ?x82942) (ite $x37706 (_ bv244 32) (_ bv243 32)) ?x952))))
 (let ((?x28958 (ite (= (_ bv12 32) ?x82942) (ite $x37706 (_ bv335 32) (_ bv334 32)) (ite (= (_ bv11 32) ?x82942) (ite $x37706 (_ bv305 32) (_ bv304 32)) ?x88262))))
 (let ((?x61808 (bvadd (bvmul (_ bv365 32) (bvsub ?x85940 (_ bv1 32))) (bvsdiv (bvsub ?x85940 (_ bv1 32)) (_ bv4 32)))))
 (let ((?x37609 (bvadd (bvsub ?x61808 (bvsdiv (bvsub ?x85940 (_ bv1 32)) (_ bv100 32))) (bvsdiv (bvsub ?x85940 (_ bv1 32)) (_ bv400 32)))))
 (let ((?x23797 (bvadd (bvadd (bvsub (bvadd (bvadd ?x37609 ?x28958) (bvsub ?x22754 (_ bv1 32))) (_ bv730179 32)) (_ bv0 32)) (_ bv730179 32))))
 (let ((?x33663 (bvsmod ?x23797 (_ bv146097 32))))
 (let ((?x84599 (bvsdiv ?x33663 (_ bv36524 32))))
 (let ((?x58306 (ite (bvsle (_ bv4 32) ?x84599) (_ bv3 32) ?x84599)))
 (let ((?x84596 (bvsub ?x33663 (bvmul ?x58306 (_ bv36524 32)))))
 (let ((?x6189 (bvsmod ?x84596 (_ bv1461 32))))
 (let ((?x61747 (bvsdiv ?x6189 (_ bv365 32))))
 (let ((?x22401 (ite (bvsle (_ bv4 32) ?x61747) (_ bv3 32) ?x61747)))
 (let ((?x18895 (bvadd (bvadd (bvmul (bvsdiv ?x23797 (_ bv146097 32)) (_ bv400 32)) (bvmul ?x58306 (_ bv100 32))) (bvmul (bvsdiv ?x84596 (_ bv1461 32)) (_ bv4 32)))))
 (let ((?x23920 (bvadd (bvadd ?x18895 ?x22401) (_ bv1 32))))
 (let (($x3096 (= (_ bv0 32) (_ bv0 32))))
 (let ((?x58215 (ite $x3096 ?x85940 ?x23920)))
 (= x_plus_year ?x58215)))))))))))))))))))))))))))))))))))))))))))))))))))))))))))))))))))))))))))))))))
(assert
 (let ((?x38534 (bvadd x_epoch (_ bv730179 32))))
 (let ((?x2630 (bvsmod ?x38534 (_ bv146097 32))))
 (let ((?x4324 (bvsdiv ?x2630 (_ bv36524 32))))
 (let ((?x4661 (ite (bvsle (_ bv4 32) ?x4324) (_ bv3 32) ?x4324)))
 (let ((?x4678 (bvsub ?x2630 (bvmul ?x4661 (_ bv36524 32)))))
 (let ((?x589 (bvsmod ?x4678 (_ bv1461 32))))
 (let ((?x1294 (bvsdiv ?x589 (_ bv365 32))))
 (let ((?x40515 (ite (bvsle (_ bv4 32) ?x1294) (_ bv3 32) ?x1294)))
 (let ((?x3519 (bvadd (bvadd (bvmul (bvsdiv ?x38534 (_ bv146097 32)) (_ bv400 32)) (bvmul ?x4661 (_ bv100 32))) (bvmul (bvsdiv ?x4678 (_ bv1461 32)) (_ bv4 32)))))
 (let ((?x51043 (bvadd (bvadd ?x3519 ?x40515) (_ bv1 32))))
 (let (($x3698 (or (and (= (bvsmod ?x51043 (_ bv4 32)) (_ bv0 32)) (and (distinct (bvsmod ?x51043 (_ bv100 32)) (_ bv0 32)) true)) (= (bvsmod ?x51043 (_ bv400 32)) (_ bv0 32)))))
 (let ((?x49372 (bvsub ?x589 (bvmul ?x40515 (_ bv365 32)))))
 (let ((?x42689 (ite $x3698 (_ bv31 32) (_ bv31 32))))
 (let (($x3604 (bvsge ?x49372 ?x42689)))
 (let ((?x2598 (ite $x3604 (bvadd (bvsub ?x49372 ?x42689) (_ bv1 32)) (bvadd (bvsub ?x49372 (ite $x3698 (_ bv0 32) (_ bv0 32))) (_ bv1 32)))))
 (let ((?x1479 (ite $x3698 (_ bv60 32) (_ bv59 32))))
 (let (($x2217 (bvsge ?x49372 ?x1479)))
 (let ((?x2842 (ite $x3698 (_ bv91 32) (_ bv90 32))))
 (let (($x2102 (bvsge ?x49372 ?x2842)))
 (let ((?x2252 (ite $x2102 (bvadd (bvsub ?x49372 ?x2842) (_ bv1 32)) (ite $x2217 (bvadd (bvsub ?x49372 ?x1479) (_ bv1 32)) ?x2598))))
 (let ((?x5872 (ite $x3698 (_ bv121 32) (_ bv120 32))))
 (let (($x3525 (bvsge ?x49372 ?x5872)))
 (let ((?x4776 (ite $x3698 (_ bv152 32) (_ bv151 32))))
 (let (($x1713 (bvsge ?x49372 ?x4776)))
 (let ((?x1689 (ite $x1713 (bvadd (bvsub ?x49372 ?x4776) (_ bv1 32)) (ite $x3525 (bvadd (bvsub ?x49372 ?x5872) (_ bv1 32)) ?x2252))))
 (let ((?x4238 (ite $x3698 (_ bv182 32) (_ bv181 32))))
 (let (($x763 (bvsge ?x49372 ?x4238)))
 (let ((?x38093 (ite $x3698 (_ bv213 32) (_ bv212 32))))
 (let (($x412 (bvsge ?x49372 ?x38093)))
 (let ((?x1226 (ite $x412 (bvadd (bvsub ?x49372 ?x38093) (_ bv1 32)) (ite $x763 (bvadd (bvsub ?x49372 ?x4238) (_ bv1 32)) ?x1689))))
 (let ((?x38040 (ite $x3698 (_ bv244 32) (_ bv243 32))))
 (let (($x578 (bvsge ?x49372 ?x38040)))
 (let ((?x1016 (ite $x3698 (_ bv274 32) (_ bv273 32))))
 (let (($x2125 (bvsge ?x49372 ?x1016)))
 (let ((?x1751 (ite $x2125 (bvadd (bvsub ?x49372 ?x1016) (_ bv1 32)) (ite $x578 (bvadd (bvsub ?x49372 ?x38040) (_ bv1 32)) ?x1226))))
 (let ((?x1414 (ite $x3698 (_ bv305 32) (_ bv304 32))))
 (let (($x1691 (bvsge ?x49372 ?x1414)))
 (let ((?x3275 (ite $x3698 (_ bv335 32) (_ bv334 32))))
 (let (($x2413 (bvsge ?x49372 ?x3275)))
 (let ((?x2270 (ite $x2413 (bvadd (bvsub ?x49372 ?x3275) (_ bv1 32)) (ite $x1691 (bvadd (bvsub ?x49372 ?x1414) (_ bv1 32)) ?x1751))))
 (let ((?x3159 (bvmul (_ bv0 32) (_ bv12 32))))
 (let ((?x34837 (bvadd ?x3159 (_ bv2 32))))
 (let ((?x634 (ite $x1713 (_ bv6 32) (ite $x3525 (_ bv5 32) (ite $x2102 (_ bv4 32) (ite $x2217 (_ bv3 32) (ite $x3604 (_ bv2 32) (_ bv1 32))))))))
 (let ((?x1635 (ite $x1691 (_ bv11 32) (ite $x2125 (_ bv10 32) (ite $x578 (_ bv9 32) (ite $x412 (_ bv8 32) (ite $x763 (_ bv7 32) ?x634)))))))
 (let ((?x3109 (ite $x2413 (_ bv12 32) ?x1635)))
 (let ((?x34702 (bvadd ?x3109 ?x34837)))
 (let ((?x28400 (bvsub (ite (bvuge ?x34702 (_ bv2147483648 32)) (bvsub ?x34702 (_ bv0 32)) ?x34702) (_ bv1 32))))
 (let ((?x819 (bvsmod ?x28400 (_ bv12 32))))
 (let ((?x82942 (bvadd ?x819 (_ bv1 32))))
 (let ((?x84624 (ite (or (= ?x82942 (_ bv4 32)) (= ?x82942 (_ bv6 32)) (= ?x82942 (_ bv9 32)) (= ?x82942 (_ bv11 32))) (_ bv30 32) (_ bv31 32))))
 (let ((?x22290 (bvsdiv ?x28400 (_ bv12 32))))
 (let ((?x26801 (ite (and (bvuge ?x28400 (_ bv2147483648 32)) (and (distinct (_ bv0 32) ?x819) true)) (bvsub ?x22290 (_ bv1 32)) ?x22290)))
 (let ((?x46716 (bvadd (_ bv0 32) ?x26801)))
 (let ((?x85940 (bvadd ?x51043 ?x46716)))
 (let (($x37706 (or (and (= (bvsmod ?x85940 (_ bv4 32)) (_ bv0 32)) (and (distinct (bvsmod ?x85940 (_ bv100 32)) (_ bv0 32)) true)) (= (bvsmod ?x85940 (_ bv400 32)) (_ bv0 32)))))
 (let ((?x80886 (ite (= ?x82942 (_ bv2 32)) (ite $x37706 (_ bv29 32) (_ bv28 32)) ?x84624)))
 (let (($x2430 (bvsgt (_ bv1 32) ?x2270)))
 (let ((?x20941 (ite $x2430 (_ bv1 32) (ite (bvsgt ?x2270 ?x80886) ?x80886 ?x2270))))
 (let ((?x22754 (ite (bvsgt (_ bv1 32) ?x20941) (_ bv1 32) (ite (bvsgt ?x20941 ?x80886) ?x80886 ?x20941))))
 (let ((?x80906 (ite (= (_ bv2 32) ?x82942) (ite $x37706 (_ bv31 32) (_ bv31 32)) (ite (= (_ bv1 32) ?x82942) (ite $x37706 (_ bv0 32) (_ bv0 32)) (_ bv0 32)))))
 (let ((?x23676 (ite (= (_ bv4 32) ?x82942) (ite $x37706 (_ bv91 32) (_ bv90 32)) (ite (= (_ bv3 32) ?x82942) (ite $x37706 (_ bv60 32) (_ bv59 32)) ?x80906))))
 (let ((?x31306 (ite (= (_ bv6 32) ?x82942) (ite $x37706 (_ bv152 32) (_ bv151 32)) (ite (= (_ bv5 32) ?x82942) (ite $x37706 (_ bv121 32) (_ bv120 32)) ?x23676))))
 (let ((?x952 (ite (= (_ bv8 32) ?x82942) (ite $x37706 (_ bv213 32) (_ bv212 32)) (ite (= (_ bv7 32) ?x82942) (ite $x37706 (_ bv182 32) (_ bv181 32)) ?x31306))))
 (let ((?x88262 (ite (= (_ bv10 32) ?x82942) (ite $x37706 (_ bv274 32) (_ bv273 32)) (ite (= (_ bv9 32) ?x82942) (ite $x37706 (_ bv244 32) (_ bv243 32)) ?x952))))
 (let ((?x28958 (ite (= (_ bv12 32) ?x82942) (ite $x37706 (_ bv335 32) (_ bv334 32)) (ite (= (_ bv11 32) ?x82942) (ite $x37706 (_ bv305 32) (_ bv304 32)) ?x88262))))
 (let ((?x61808 (bvadd (bvmul (_ bv365 32) (bvsub ?x85940 (_ bv1 32))) (bvsdiv (bvsub ?x85940 (_ bv1 32)) (_ bv4 32)))))
 (let ((?x37609 (bvadd (bvsub ?x61808 (bvsdiv (bvsub ?x85940 (_ bv1 32)) (_ bv100 32))) (bvsdiv (bvsub ?x85940 (_ bv1 32)) (_ bv400 32)))))
 (let ((?x23797 (bvadd (bvadd (bvsub (bvadd (bvadd ?x37609 ?x28958) (bvsub ?x22754 (_ bv1 32))) (_ bv730179 32)) (_ bv0 32)) (_ bv730179 32))))
 (let ((?x33663 (bvsmod ?x23797 (_ bv146097 32))))
 (let ((?x84599 (bvsdiv ?x33663 (_ bv36524 32))))
 (let ((?x58306 (ite (bvsle (_ bv4 32) ?x84599) (_ bv3 32) ?x84599)))
 (let ((?x84596 (bvsub ?x33663 (bvmul ?x58306 (_ bv36524 32)))))
 (let ((?x6189 (bvsmod ?x84596 (_ bv1461 32))))
 (let ((?x61747 (bvsdiv ?x6189 (_ bv365 32))))
 (let ((?x22401 (ite (bvsle (_ bv4 32) ?x61747) (_ bv3 32) ?x61747)))
 (let ((?x18895 (bvadd (bvadd (bvmul (bvsdiv ?x23797 (_ bv146097 32)) (_ bv400 32)) (bvmul ?x58306 (_ bv100 32))) (bvmul (bvsdiv ?x84596 (_ bv1461 32)) (_ bv4 32)))))
 (let ((?x23920 (bvadd (bvadd ?x18895 ?x22401) (_ bv1 32))))
 (let (($x36060 (or (and (= (bvsmod ?x23920 (_ bv4 32)) (_ bv0 32)) (and (distinct (bvsmod ?x23920 (_ bv100 32)) (_ bv0 32)) true)) (= (bvsmod ?x23920 (_ bv400 32)) (_ bv0 32)))))
 (let ((?x23587 (ite $x36060 (_ bv31 32) (_ bv31 32))))
 (let ((?x37693 (bvsub ?x6189 (bvmul ?x22401 (_ bv365 32)))))
 (let (($x84597 (bvsge ?x37693 ?x23587)))
 (let ((?x33881 (ite $x36060 (_ bv60 32) (_ bv59 32))))
 (let (($x22202 (bvsge ?x37693 ?x33881)))
 (let ((?x57978 (ite $x36060 (_ bv91 32) (_ bv90 32))))
 (let (($x61835 (bvsge ?x37693 ?x57978)))
 (let ((?x41566 (ite $x36060 (_ bv121 32) (_ bv120 32))))
 (let (($x49160 (bvsge ?x37693 ?x41566)))
 (let ((?x2644 (ite $x36060 (_ bv152 32) (_ bv151 32))))
 (let (($x29959 (bvsge ?x37693 ?x2644)))
 (let ((?x15949 (ite $x29959 (_ bv6 32) (ite $x49160 (_ bv5 32) (ite $x61835 (_ bv4 32) (ite $x22202 (_ bv3 32) (ite $x84597 (_ bv2 32) (_ bv1 32))))))))
 (let ((?x51299 (ite $x36060 (_ bv182 32) (_ bv181 32))))
 (let (($x36319 (bvsge ?x37693 ?x51299)))
 (let ((?x16356 (ite $x36060 (_ bv213 32) (_ bv212 32))))
 (let (($x38941 (bvsge ?x37693 ?x16356)))
 (let ((?x35106 (ite $x36060 (_ bv244 32) (_ bv243 32))))
 (let (($x15905 (bvsge ?x37693 ?x35106)))
 (let ((?x15921 (ite $x36060 (_ bv274 32) (_ bv273 32))))
 (let (($x36270 (bvsge ?x37693 ?x15921)))
 (let ((?x8092 (ite $x36060 (_ bv305 32) (_ bv304 32))))
 (let (($x16408 (bvsge ?x37693 ?x8092)))
 (let ((?x26831 (ite $x16408 (_ bv11 32) (ite $x36270 (_ bv10 32) (ite $x15905 (_ bv9 32) (ite $x38941 (_ bv8 32) (ite $x36319 (_ bv7 32) ?x15949)))))))
 (let ((?x79040 (ite $x36060 (_ bv335 32) (_ bv334 32))))
 (let (($x46528 (bvsge ?x37693 ?x79040)))
 (let (($x3096 (= (_ bv0 32) (_ bv0 32))))
 (let ((?x58429 (ite $x3096 ?x82942 (ite $x46528 (_ bv12 32) ?x26831))))
 (= x_plus_month ?x58429)))))))))))))))))))))))))))))))))))))))))))))))))))))))))))))))))))))))))))))))))))))))))))))))))))))))))))
(assert
 (let ((?x38534 (bvadd x_epoch (_ bv730179 32))))
 (let ((?x2630 (bvsmod ?x38534 (_ bv146097 32))))
 (let ((?x4324 (bvsdiv ?x2630 (_ bv36524 32))))
 (let ((?x4661 (ite (bvsle (_ bv4 32) ?x4324) (_ bv3 32) ?x4324)))
 (let ((?x4678 (bvsub ?x2630 (bvmul ?x4661 (_ bv36524 32)))))
 (let ((?x589 (bvsmod ?x4678 (_ bv1461 32))))
 (let ((?x1294 (bvsdiv ?x589 (_ bv365 32))))
 (let ((?x40515 (ite (bvsle (_ bv4 32) ?x1294) (_ bv3 32) ?x1294)))
 (let ((?x3519 (bvadd (bvadd (bvmul (bvsdiv ?x38534 (_ bv146097 32)) (_ bv400 32)) (bvmul ?x4661 (_ bv100 32))) (bvmul (bvsdiv ?x4678 (_ bv1461 32)) (_ bv4 32)))))
 (let ((?x51043 (bvadd (bvadd ?x3519 ?x40515) (_ bv1 32))))
 (let (($x3698 (or (and (= (bvsmod ?x51043 (_ bv4 32)) (_ bv0 32)) (and (distinct (bvsmod ?x51043 (_ bv100 32)) (_ bv0 32)) true)) (= (bvsmod ?x51043 (_ bv400 32)) (_ bv0 32)))))
 (let ((?x49372 (bvsub ?x589 (bvmul ?x40515 (_ bv365 32)))))
 (let ((?x42689 (ite $x3698 (_ bv31 32) (_ bv31 32))))
 (let (($x3604 (bvsge ?x49372 ?x42689)))
 (let ((?x2598 (ite $x3604 (bvadd (bvsub ?x49372 ?x42689) (_ bv1 32)) (bvadd (bvsub ?x49372 (ite $x3698 (_ bv0 32) (_ bv0 32))) (_ bv1 32)))))
 (let ((?x1479 (ite $x3698 (_ bv60 32) (_ bv59 32))))
 (let (($x2217 (bvsge ?x49372 ?x1479)))
 (let ((?x2842 (ite $x3698 (_ bv91 32) (_ bv90 32))))
 (let (($x2102 (bvsge ?x49372 ?x2842)))
 (let ((?x2252 (ite $x2102 (bvadd (bvsub ?x49372 ?x2842) (_ bv1 32)) (ite $x2217 (bvadd (bvsub ?x49372 ?x1479) (_ bv1 32)) ?x2598))))
 (let ((?x5872 (ite $x3698 (_ bv121 32) (_ bv120 32))))
 (let (($x3525 (bvsge ?x49372 ?x5872)))
 (let ((?x4776 (ite $x3698 (_ bv152 32) (_ bv151 32))))
 (let (($x1713 (bvsge ?x49372 ?x4776)))
 (let ((?x1689 (ite $x1713 (bvadd (bvsub ?x49372 ?x4776) (_ bv1 32)) (ite $x3525 (bvadd (bvsub ?x49372 ?x5872) (_ bv1 32)) ?x2252))))
 (let ((?x4238 (ite $x3698 (_ bv182 32) (_ bv181 32))))
 (let (($x763 (bvsge ?x49372 ?x4238)))
 (let ((?x38093 (ite $x3698 (_ bv213 32) (_ bv212 32))))
 (let (($x412 (bvsge ?x49372 ?x38093)))
 (let ((?x1226 (ite $x412 (bvadd (bvsub ?x49372 ?x38093) (_ bv1 32)) (ite $x763 (bvadd (bvsub ?x49372 ?x4238) (_ bv1 32)) ?x1689))))
 (let ((?x38040 (ite $x3698 (_ bv244 32) (_ bv243 32))))
 (let (($x578 (bvsge ?x49372 ?x38040)))
 (let ((?x1016 (ite $x3698 (_ bv274 32) (_ bv273 32))))
 (let (($x2125 (bvsge ?x49372 ?x1016)))
 (let ((?x1751 (ite $x2125 (bvadd (bvsub ?x49372 ?x1016) (_ bv1 32)) (ite $x578 (bvadd (bvsub ?x49372 ?x38040) (_ bv1 32)) ?x1226))))
 (let ((?x1414 (ite $x3698 (_ bv305 32) (_ bv304 32))))
 (let (($x1691 (bvsge ?x49372 ?x1414)))
 (let ((?x3275 (ite $x3698 (_ bv335 32) (_ bv334 32))))
 (let (($x2413 (bvsge ?x49372 ?x3275)))
 (let ((?x2270 (ite $x2413 (bvadd (bvsub ?x49372 ?x3275) (_ bv1 32)) (ite $x1691 (bvadd (bvsub ?x49372 ?x1414) (_ bv1 32)) ?x1751))))
 (let ((?x3159 (bvmul (_ bv0 32) (_ bv12 32))))
 (let ((?x34837 (bvadd ?x3159 (_ bv2 32))))
 (let ((?x634 (ite $x1713 (_ bv6 32) (ite $x3525 (_ bv5 32) (ite $x2102 (_ bv4 32) (ite $x2217 (_ bv3 32) (ite $x3604 (_ bv2 32) (_ bv1 32))))))))
 (let ((?x1635 (ite $x1691 (_ bv11 32) (ite $x2125 (_ bv10 32) (ite $x578 (_ bv9 32) (ite $x412 (_ bv8 32) (ite $x763 (_ bv7 32) ?x634)))))))
 (let ((?x3109 (ite $x2413 (_ bv12 32) ?x1635)))
 (let ((?x34702 (bvadd ?x3109 ?x34837)))
 (let ((?x28400 (bvsub (ite (bvuge ?x34702 (_ bv2147483648 32)) (bvsub ?x34702 (_ bv0 32)) ?x34702) (_ bv1 32))))
 (let ((?x819 (bvsmod ?x28400 (_ bv12 32))))
 (let ((?x82942 (bvadd ?x819 (_ bv1 32))))
 (let ((?x84624 (ite (or (= ?x82942 (_ bv4 32)) (= ?x82942 (_ bv6 32)) (= ?x82942 (_ bv9 32)) (= ?x82942 (_ bv11 32))) (_ bv30 32) (_ bv31 32))))
 (let ((?x22290 (bvsdiv ?x28400 (_ bv12 32))))
 (let ((?x26801 (ite (and (bvuge ?x28400 (_ bv2147483648 32)) (and (distinct (_ bv0 32) ?x819) true)) (bvsub ?x22290 (_ bv1 32)) ?x22290)))
 (let ((?x46716 (bvadd (_ bv0 32) ?x26801)))
 (let ((?x85940 (bvadd ?x51043 ?x46716)))
 (let (($x37706 (or (and (= (bvsmod ?x85940 (_ bv4 32)) (_ bv0 32)) (and (distinct (bvsmod ?x85940 (_ bv100 32)) (_ bv0 32)) true)) (= (bvsmod ?x85940 (_ bv400 32)) (_ bv0 32)))))
 (let ((?x80886 (ite (= ?x82942 (_ bv2 32)) (ite $x37706 (_ bv29 32) (_ bv28 32)) ?x84624)))
 (let (($x2430 (bvsgt (_ bv1 32) ?x2270)))
 (let ((?x20941 (ite $x2430 (_ bv1 32) (ite (bvsgt ?x2270 ?x80886) ?x80886 ?x2270))))
 (let ((?x22754 (ite (bvsgt (_ bv1 32) ?x20941) (_ bv1 32) (ite (bvsgt ?x20941 ?x80886) ?x80886 ?x20941))))
 (let ((?x80906 (ite (= (_ bv2 32) ?x82942) (ite $x37706 (_ bv31 32) (_ bv31 32)) (ite (= (_ bv1 32) ?x82942) (ite $x37706 (_ bv0 32) (_ bv0 32)) (_ bv0 32)))))
 (let ((?x23676 (ite (= (_ bv4 32) ?x82942) (ite $x37706 (_ bv91 32) (_ bv90 32)) (ite (= (_ bv3 32) ?x82942) (ite $x37706 (_ bv60 32) (_ bv59 32)) ?x80906))))
 (let ((?x31306 (ite (= (_ bv6 32) ?x82942) (ite $x37706 (_ bv152 32) (_ bv151 32)) (ite (= (_ bv5 32) ?x82942) (ite $x37706 (_ bv121 32) (_ bv120 32)) ?x23676))))
 (let ((?x952 (ite (= (_ bv8 32) ?x82942) (ite $x37706 (_ bv213 32) (_ bv212 32)) (ite (= (_ bv7 32) ?x82942) (ite $x37706 (_ bv182 32) (_ bv181 32)) ?x31306))))
 (let ((?x88262 (ite (= (_ bv10 32) ?x82942) (ite $x37706 (_ bv274 32) (_ bv273 32)) (ite (= (_ bv9 32) ?x82942) (ite $x37706 (_ bv244 32) (_ bv243 32)) ?x952))))
 (let ((?x28958 (ite (= (_ bv12 32) ?x82942) (ite $x37706 (_ bv335 32) (_ bv334 32)) (ite (= (_ bv11 32) ?x82942) (ite $x37706 (_ bv305 32) (_ bv304 32)) ?x88262))))
 (let ((?x61808 (bvadd (bvmul (_ bv365 32) (bvsub ?x85940 (_ bv1 32))) (bvsdiv (bvsub ?x85940 (_ bv1 32)) (_ bv4 32)))))
 (let ((?x37609 (bvadd (bvsub ?x61808 (bvsdiv (bvsub ?x85940 (_ bv1 32)) (_ bv100 32))) (bvsdiv (bvsub ?x85940 (_ bv1 32)) (_ bv400 32)))))
 (let ((?x23797 (bvadd (bvadd (bvsub (bvadd (bvadd ?x37609 ?x28958) (bvsub ?x22754 (_ bv1 32))) (_ bv730179 32)) (_ bv0 32)) (_ bv730179 32))))
 (let ((?x33663 (bvsmod ?x23797 (_ bv146097 32))))
 (let ((?x84599 (bvsdiv ?x33663 (_ bv36524 32))))
 (let ((?x58306 (ite (bvsle (_ bv4 32) ?x84599) (_ bv3 32) ?x84599)))
 (let ((?x84596 (bvsub ?x33663 (bvmul ?x58306 (_ bv36524 32)))))
 (let ((?x6189 (bvsmod ?x84596 (_ bv1461 32))))
 (let ((?x61747 (bvsdiv ?x6189 (_ bv365 32))))
 (let ((?x22401 (ite (bvsle (_ bv4 32) ?x61747) (_ bv3 32) ?x61747)))
 (let ((?x18895 (bvadd (bvadd (bvmul (bvsdiv ?x23797 (_ bv146097 32)) (_ bv400 32)) (bvmul ?x58306 (_ bv100 32))) (bvmul (bvsdiv ?x84596 (_ bv1461 32)) (_ bv4 32)))))
 (let ((?x23920 (bvadd (bvadd ?x18895 ?x22401) (_ bv1 32))))
 (let (($x36060 (or (and (= (bvsmod ?x23920 (_ bv4 32)) (_ bv0 32)) (and (distinct (bvsmod ?x23920 (_ bv100 32)) (_ bv0 32)) true)) (= (bvsmod ?x23920 (_ bv400 32)) (_ bv0 32)))))
 (let ((?x37693 (bvsub ?x6189 (bvmul ?x22401 (_ bv365 32)))))
 (let ((?x23587 (ite $x36060 (_ bv31 32) (_ bv31 32))))
 (let (($x84597 (bvsge ?x37693 ?x23587)))
 (let ((?x22119 (ite $x84597 (bvadd (bvsub ?x37693 ?x23587) (_ bv1 32)) (bvadd (bvsub ?x37693 (ite $x36060 (_ bv0 32) (_ bv0 32))) (_ bv1 32)))))
 (let ((?x33881 (ite $x36060 (_ bv60 32) (_ bv59 32))))
 (let (($x22202 (bvsge ?x37693 ?x33881)))
 (let ((?x57978 (ite $x36060 (_ bv91 32) (_ bv90 32))))
 (let (($x61835 (bvsge ?x37693 ?x57978)))
 (let ((?x58290 (ite $x61835 (bvadd (bvsub ?x37693 ?x57978) (_ bv1 32)) (ite $x22202 (bvadd (bvsub ?x37693 ?x33881) (_ bv1 32)) ?x22119))))
 (let ((?x41566 (ite $x36060 (_ bv121 32) (_ bv120 32))))
 (let (($x49160 (bvsge ?x37693 ?x41566)))
 (let ((?x2644 (ite $x36060 (_ bv152 32) (_ bv151 32))))
 (let (($x29959 (bvsge ?x37693 ?x2644)))
 (let ((?x34648 (ite $x29959 (bvadd (bvsub ?x37693 ?x2644) (_ bv1 32)) (ite $x49160 (bvadd (bvsub ?x37693 ?x41566) (_ bv1 32)) ?x58290))))
 (let ((?x51299 (ite $x36060 (_ bv182 32) (_ bv181 32))))
 (let (($x36319 (bvsge ?x37693 ?x51299)))
 (let ((?x16356 (ite $x36060 (_ bv213 32) (_ bv212 32))))
 (let (($x38941 (bvsge ?x37693 ?x16356)))
 (let ((?x61870 (ite $x38941 (bvadd (bvsub ?x37693 ?x16356) (_ bv1 32)) (ite $x36319 (bvadd (bvsub ?x37693 ?x51299) (_ bv1 32)) ?x34648))))
 (let ((?x35106 (ite $x36060 (_ bv244 32) (_ bv243 32))))
 (let (($x15905 (bvsge ?x37693 ?x35106)))
 (let ((?x15921 (ite $x36060 (_ bv274 32) (_ bv273 32))))
 (let (($x36270 (bvsge ?x37693 ?x15921)))
 (let ((?x26698 (ite $x36270 (bvadd (bvsub ?x37693 ?x15921) (_ bv1 32)) (ite $x15905 (bvadd (bvsub ?x37693 ?x35106) (_ bv1 32)) ?x61870))))
 (let ((?x8092 (ite $x36060 (_ bv305 32) (_ bv304 32))))
 (let (($x16408 (bvsge ?x37693 ?x8092)))
 (let ((?x79040 (ite $x36060 (_ bv335 32) (_ bv334 32))))
 (let (($x46528 (bvsge ?x37693 ?x79040)))
 (let ((?x58552 (ite $x46528 (bvadd (bvsub ?x37693 ?x79040) (_ bv1 32)) (ite $x16408 (bvadd (bvsub ?x37693 ?x8092) (_ bv1 32)) ?x26698))))
 (let (($x3096 (= (_ bv0 32) (_ bv0 32))))
 (let ((?x80875 (ite $x3096 ?x22754 ?x58552)))
 (= x_plus_day ?x80875)))))))))))))))))))))))))))))))))))))))))))))))))))))))))))))))))))))))))))))))))))))))))))))))))))))))))))))))
(assert
 (bvsle (_ bv4294930771 32) x_plus_1_epoch))
(assert
 (bvsge (_ bv36523 32) x_plus_1_epoch))
(assert
 (= x_plus_1_epoch (bvadd x_epoch (_ bv61 32))))
(assert
 (= x_plus_epoch x_plus_1_epoch))
(check-sat)
